c preprocessed version of TaylorTwographDescendantSRG_3, 27 vertices, 135 edges
p td 27 135
0 1
0 5
0 12
0 19
0 20
0 21
0 22
0 23
0 24
0 25
1 2
1 7
1 8
1 11
1 12
1 14
1 17
1 18
1 26
2 4
2 10
2 14
2 15
2 16
2 19
3 11
3 14
3 16
3 17
3 19
4 11
4 13
4 17
4 18
4 19
5 10
5 11
5 13
5 14
5 15
5 16
5 17
5 18
5 19
6 7
6 10
6 14
6 17
6 18
6 19
7 11
7 13
7 15
7 16
7 19
8 9
8 10
8 13
8 16
8 17
8 19
9 11
9 14
9 15
9 18
9 19
10 11
12 3
12 4
12 6
12 9
12 10
12 13
12 15
12 16
13 14
15 17
16 18
20 4
20 7
20 9
20 10
20 14
20 16
20 17
20 21
20 26
21 2
21 3
21 6
21 8
21 11
21 13
21 15
21 18
22 2
22 3
22 7
22 9
22 10
22 13
22 17
22 18
22 24
23 3
23 4
23 7
23 8
23 10
23 14
23 15
23 18
23 25
24 4
24 6
24 8
24 11
24 14
24 15
24 16
24 26
25 2
25 6
25 9
25 11
25 13
25 16
25 17
25 26
26 3
26 10
26 13
26 15
26 18
26 19
